SPARKNaCl/why3-z3/sparknacl-hashing-rfsb509.adb_91_18_range_check4_1.smt2
;; produced by z3_gnatprove.drv ;;
(set-info :smt-lib-version 2.5)
(set-info :source |VC generated by SPARK 2014|)
(set-info :category industrial)
(set-info :status unknown)
;;; generated by SMT-LIB2 driver
;;; SMT-LIB2 driver: bit-vectors, common part
;;; SMT-LIB2: integer arithmetic
(declare-datatypes ()
  ((int__ref (int__refqtmk (int__content Int)))))

(declare-datatypes ()
  ((t__ref (t__refqtmk (t__content (_ BitVec 8))))))

(declare-sort byte 0)

(declare-sort map1 0)

(declare-datatypes ()
  ((map__ref (map__refqtmk (map__content map1)))))

;; "has_bounds"
(declare-fun has_bounds (map1
  Int
  Int) Bool)

(declare-const word (_ BitVec 8))

(declare-const five_lsb_mask (_ BitVec 8))

;; "to_rep"
(declare-fun to_rep (byte) (_ BitVec 8))

;; "of_rep"
(declare-fun of_rep ((_ BitVec 8)) byte)

;; "inversion_axiom"
(assert
  (forall ((x byte)) (! (= (of_rep (to_rep x)) x) :pattern ((to_rep x)) )))

;; "range_axiom"
(assert true)

;; "coerce_axiom"
(assert
  (forall ((x (_ BitVec 8)))
    (! (= (to_rep (of_rep x)) x) :pattern ((to_rep (of_rep x))) )))

(declare-sort map2 0)

(declare-datatypes ()
  ((map__ref1 (map__refqtmk1 (map__content1 map2)))))

;; "has_bounds"
(declare-fun has_bounds1 (map2
  Int
  Int) Bool)

;; "get"
(declare-fun get (map2
  Int) byte)

;; "set"
(declare-fun set (map2
  Int
  byte) map2)

;; "set_eq"
(assert
  (forall ((a map2) (i Int) (v byte))
    (! (= (get (set a i v) i) v) :pattern ((set a i v)) )))

;; "set_neq"
(assert
  (forall ((a map2) (i Int) (v byte))
    (! (forall ((j Int))
         (! (=> (not (= i j)) (= (get (set a i v) j) (get a j))) :pattern (
         (get
           a
           j)) :pattern ((get (set a i v) j)) )) :pattern ((set a i v)) )))

;; "set_has_bounds"
(assert
  (forall ((a map2) (i Int) (f Int) (l Int) (v byte))
    (! (=>
         (and (<= f i) (<= i l))
         (=> (has_bounds1 a f l) (has_bounds1 (set a i v) f l))) :pattern (
    (has_bounds1
      (set a i v)
      f
      l)) )))

(declare-sort tinteger_32B 0)

;; "tinteger_32B'int"
(declare-fun tinteger_32Bqtint (tinteger_32B) Int)

;; "tinteger_32B'axiom"
(assert
  (forall ((i tinteger_32B))
    (and
      (<= (- 2147483648) (tinteger_32Bqtint i))
      (<= (tinteger_32Bqtint i) 2147483647))))

;; "in_range"
(define-fun in_range ((x Int)) Bool
  (and (<= (- 2147483648) x) (<= x 2147483647)))

;; "to_rep"
(define-fun to_rep1 ((x tinteger_32B)) Int
  (tinteger_32Bqtint x))

;; "of_rep"
(declare-fun of_rep1 (Int) tinteger_32B)

;; "inversion_axiom"
(assert
  (forall ((x tinteger_32B))
    (! (= (of_rep1 (to_rep1 x)) x) :pattern ((to_rep1 x)) )))

;; "range_axiom"
(assert
  (forall ((x tinteger_32B))
    (! (in_range (to_rep1 x)) :pattern ((to_rep1 x)) )))

;; "coerce_axiom"
(assert
  (forall ((x Int))
    (! (=> (in_range x) (= (to_rep1 (of_rep1 x)) x)) :pattern ((to_rep1
                                                                 (of_rep1 x))) )))

;; "ada___ada___sparknacl__hashing__rfsb509__calculate_column__cipher_input__aggregate_def"
(declare-fun ada___ada___sparknacl__hashing__rfsb509__calculate_column__cipher_input__aggregate_def ((_ BitVec 8)) map2)

(declare-const column map1)

(declare-const first_byte (_ BitVec 8))

(declare-const last_byte (_ BitVec 8))

;; "last_byte'unused"
(define-fun last_byteqtunused () t__ref
  (t__refqtmk last_byte))

;; "first_byte'unused"
(define-fun first_byteqtunused () t__ref
  (t__refqtmk first_byte))

;; "column'unused"
(define-fun columnqtunused () map__ref
  (map__refqtmk column))

;; "Assume"
(assert (has_bounds column 0 63))

;; "Assume"
(assert true)

;; "Assume"
(assert true)

;; "ada___ada___sparknacl__hashing__rfsb509__calculate_column__five_lsb_mask__assume'unused"
(define-fun ada___ada___sparknacl__hashing__rfsb509__calculate_column__five_lsb_mask__assumeqtunused 
  () (_ BitVec 8)
  #x1F)

;; "Assume"
(assert (= #x1F five_lsb_mask))

;; "Assume"
(assert true)

;; "Assume"
(assert true)

;; "Assume"
(assert true)

;; "Assume"
(assert true)

;; "Assume"
(assert true)

(declare-const temp___700 map2)

;; "H"
(assert (has_bounds1 temp___700 0 15))

;; "H"
(assert
  (forall ((temp___699 Int))
    (! (=>
         (and (<= 0 temp___699) (<= temp___699 15))
         (= (to_rep (get temp___700 temp___699)) #x00)) :pattern ((get
                                                                    temp___700
                                                                    temp___699)) )))

;; "H"
(assert
  (= temp___700 (ada___ada___sparknacl__hashing__rfsb509__calculate_column__cipher_input__aggregate_def
                  #x00)))

;; "ada___ada___sparknacl__hashing__rfsb509__calculate_column__cipher_input__aggregate_def'result'unused"
(define-fun ada___ada___sparknacl__hashing__rfsb509__calculate_column__cipher_input__aggregate_defqtresultqtunused 
  () map2
  temp___700)

(declare-const cipher_input map2)

;; "cipher_input'unused"
(define-fun cipher_inputqtunused () map__ref1
  (map__refqtmk1 cipher_input))

;; "H"
(assert (= cipher_input temp___700))

;; "Assume"
(assert (has_bounds1 cipher_input 0 15))

(declare-const o byte)

;; "Ensures"
(assert (= (to_rep o) word))

;; "of_rep'result'unused"
(define-fun of_repqtresultqtunused () byte
  o)

;; "map__content'result'unused"
(define-fun map__contentqtresultqtunused () map2
  cipher_input)

;; "o"
(define-fun o1 () map2
  (set cipher_input 1 o))

;; "set'result'unused"
(define-fun setqtresultqtunused () map2
  o1)

(declare-const cipher_input1 map2)

;; "cipher_input'unused"
(define-fun cipher_inputqtunused1 () map__ref1
  (map__refqtmk1 cipher_input1))

;; "H"
(assert (= cipher_input1 o1))

(declare-const i Int)

;; "i'unused"
(define-fun iqtunused () int__ref
  (int__refqtmk i))

;; "H"
(assert (= i 0))

;; "int__content'result'unused"
(define-fun int__contentqtresultqtunused () Int
  i)

;; "o"
(define-fun o2 () Bool
  (ite (<= i 3) true false))

;; "infix <='result'unused"
(define-fun infix_lseqqtresultqtunused () Bool
  o2)

;; "int__content'result'unused"
(define-fun int__contentqtresultqtunused1 () Int
  i)

;; "o"
(define-fun o3 () Bool
  (ite (<= 0 i) true false))

;; "infix <='result'unused"
(define-fun infix_lseqqtresultqtunused1 () Bool
  o3)

;; "o"
(define-fun o4 () Bool
  (and o3 o2))

;; "andb'result'unused"
(define-fun andbqtresultqtunused () Bool
  o4)

;; "H"
(assert (= o4 true))

;; "temp___loop_entry_725'unused"
(define-fun temp___loop_entry_725qtunused () map2
  cipher_input1)

;; "map__content'result'unused"
(define-fun map__contentqtresultqtunused1 () map2
  cipher_input1)

;; "temp___loop_entry_722'unused"
(define-fun temp___loop_entry_722qtunused () map1
  column)

;; "map__content'result'unused"
(define-fun map__contentqtresultqtunused2 () map1
  column)

;; "int__content'result'unused"
(define-fun int__contentqtresultqtunused2 () Int
  i)

;; "o"
(define-fun o5 () (_ BitVec 8)
  ((_ int2bv 8) i))

;; "of_int'result'unused"
(define-fun of_intqtresultqtunused () (_ BitVec 8)
  o5)

(declare-const o6 byte)

;; "Ensures"
(assert (= (to_rep o6) o5))

;; "of_rep'result'unused"
(define-fun of_repqtresultqtunused1 () byte
  o6)

;; "map__content'result'unused"
(define-fun map__contentqtresultqtunused3 () map2
  cipher_input1)

;; "o"
(define-fun o7 () map2
  (set cipher_input1 0 o6))

;; "set'result'unused"
(define-fun setqtresultqtunused1 () map2
  o7)

(declare-const cipher_input2 map2)

;; "cipher_input'unused"
(define-fun cipher_inputqtunused2 () map__ref1
  (map__refqtmk1 cipher_input2))

;; "H"
(assert (= cipher_input2 o7))

;; "int__content'result'unused"
(define-fun int__contentqtresultqtunused3 () Int
  i)

;; "o"
(define-fun o8 () Int
  (* i 16))

;; "infix *'result'unused"
(define-fun infix_asqtresultqtunused () Int
  o8)

;; "temp___710"
(define-fun temp___710 () Int
  (+ o8 15))

;; "infix +'result'unused"
(define-fun infix_plqtresultqtunused () Int
  temp___710)

;; "int__content'result'unused"
(define-fun int__contentqtresultqtunused4 () Int
  i)

;; "temp___709"
(define-fun temp___709 () Int
  (* i 16))

;; "infix *'result'unused"
(define-fun infix_asqtresultqtunused1 () Int
  temp___709)

;; "map__content'result'unused"
(define-fun map__contentqtresultqtunused4 () map1
  column)

;; "H"
(assert (<= temp___709 temp___710))

;; Goal "def'vc"
;; File "sparknacl-hashing-rfsb509.adb", line 37, characters 0-0
(assert
  (not (<= temp___710 63)))

(check-sat)
